** GENERIC_FE_PROTOTYPE — GENERIC_PLACEHOLDER_PARAMETER
** Minimal bilateral T3D2 cable / rigid panel archetype
** TENSION_ONLY_FE = NOT YET VERIFIED
*HEADING
Stage 2 generic cable-PV structural prototype
*NODE
1, 0., -0.3, 0.
2, 1, -0.3, 0.
3, 2, -0.3, 0.
4, 0., 0.3, 0.
5, 1, 0.3, 0.
6, 2, 0.3, 0.
7, 1, 0., 0.
*ELEMENT, TYPE=T3D2, ELSET=CABLES
1, 1, 2
2, 2, 3
3, 4, 5
4, 5, 6
*ELEMENT, TYPE=MASS, ELSET=PANEL_MASS
5, 7
*ELEMENT, TYPE=ROTARYI, ELSET=PANEL_INERTIA
6, 7
*NSET, NSET=SUPPORTS
1, 3, 4, 6
*NSET, NSET=PANEL_ATTACHMENT
2, 5
*NSET, NSET=PANEL_REFERENCE
7
*MATERIAL, NAME=GENERIC_CABLE
*ELASTIC
70000000000, 0.3
*SOLID SECTION, ELSET=CABLES, MATERIAL=GENERIC_CABLE
0.0001
*MASS, ELSET=PANEL_MASS
8
*ROTARY INERTIA, ELSET=PANEL_INERTIA
0.25, 0.25, 0.25
*RIGID BODY, REF NODE=7, PIN NSET=PANEL_ATTACHMENT
*BOUNDARY
SUPPORTS, 1, 3, 0.
PANEL_REFERENCE, 1, 2, 0.
PANEL_REFERENCE, 5, 6, 0.
*STEP, NAME=GENERIC_STATIC, NLGEOM=YES
*STATIC
0.1, 1.0, 1e-06, 0.1
*CLOAD
7, 3, -10
7, 4, -0
*OUTPUT, FIELD
*NODE OUTPUT
U, UR, RF, RM
*ELEMENT OUTPUT, ELSET=CABLES
S, E
*OUTPUT, HISTORY
*NODE OUTPUT, NSET=PANEL_REFERENCE
U, UR, RF, RM
*END STEP
*STEP, NAME=GENERIC_MODES, PERTURBATION
*FREQUENCY, EIGENSOLVER=LANCZOS
5,
*OUTPUT, FIELD
*NODE OUTPUT
U
*END STEP
